<instance format="XCSP3" type="COP">
  <variables>
    <array id="x" size="[50]"> 0..29 </array>
  </variables>
  <constraints>
    <group>
      <sum>
        <list> %... </list>
        <coeffs> 99 98 95 95 95 94 94 91 88 87 86 85 76 74 73 71 68 60 55 54 51 45 42 40 39 39 36 34 33 32 32 31 31 30 29 26 26 23 21 21 21 19 18 18 16 15 5 5 4 1 </coeffs>
        <condition> (le,100) </condition>
      </sum>
      <args> eq(x[0],0) eq(x[1],0) eq(x[2],0) eq(x[3],0) eq(x[4],0) eq(x[5],0) eq(x[6],0) eq(x[7],0) eq(x[8],0) eq(x[9],0) eq(x[10],0) eq(x[11],0) eq(x[12],0) eq(x[13],0) eq(x[14],0) eq(x[15],0) eq(x[16],0) eq(x[17],0) eq(x[18],0) eq(x[19],0) eq(x[20],0) eq(x[21],0) eq(x[22],0) eq(x[23],0) eq(x[24],0) eq(x[25],0) eq(x[26],0) eq(x[27],0) eq(x[28],0) eq(x[29],0) eq(x[30],0) eq(x[31],0) eq(x[32],0) eq(x[33],0) eq(x[34],0) eq(x[35],0) eq(x[36],0) eq(x[37],0) eq(x[38],0) eq(x[39],0) eq(x[40],0) eq(x[41],0) eq(x[42],0) eq(x[43],0) eq(x[44],0) eq(x[45],0) eq(x[46],0) eq(x[47],0) eq(x[48],0) eq(x[49],0) </args>
      <args> eq(x[0],1) eq(x[1],1) eq(x[2],1) eq(x[3],1) eq(x[4],1) eq(x[5],1) eq(x[6],1) eq(x[7],1) eq(x[8],1) eq(x[9],1) eq(x[10],1) eq(x[11],1) eq(x[12],1) eq(x[13],1) eq(x[14],1) eq(x[15],1) eq(x[16],1) eq(x[17],1) eq(x[18],1) eq(x[19],1) eq(x[20],1) eq(x[21],1) eq(x[22],1) eq(x[23],1) eq(x[24],1) eq(x[25],1) eq(x[26],1) eq(x[27],1) eq(x[28],1) eq(x[29],1) eq(x[30],1) eq(x[31],1) eq(x[32],1) eq(x[33],1) eq(x[34],1) eq(x[35],1) eq(x[36],1) eq(x[37],1) eq(x[38],1) eq(x[39],1) eq(x[40],1) eq(x[41],1) eq(x[42],1) eq(x[43],1) eq(x[44],1) eq(x[45],1) eq(x[46],1) eq(x[47],1) eq(x[48],1) eq(x[49],1) </args>
      <args> eq(x[0],2) eq(x[1],2) eq(x[2],2) eq(x[3],2) eq(x[4],2) eq(x[5],2) eq(x[6],2) eq(x[7],2) eq(x[8],2) eq(x[9],2) eq(x[10],2) eq(x[11],2) eq(x[12],2) eq(x[13],2) eq(x[14],2) eq(x[15],2) eq(x[16],2) eq(x[17],2) eq(x[18],2) eq(x[19],2) eq(x[20],2) eq(x[21],2) eq(x[22],2) eq(x[23],2) eq(x[24],2) eq(x[25],2) eq(x[26],2) eq(x[27],2) eq(x[28],2) eq(x[29],2) eq(x[30],2) eq(x[31],2) eq(x[32],2) eq(x[33],2) eq(x[34],2) eq(x[35],2) eq(x[36],2) eq(x[37],2) eq(x[38],2) eq(x[39],2) eq(x[40],2) eq(x[41],2) eq(x[42],2) eq(x[43],2) eq(x[44],2) eq(x[45],2) eq(x[46],2) eq(x[47],2) eq(x[48],2) eq(x[49],2) </args>
      <args> eq(x[0],3) eq(x[1],3) eq(x[2],3) eq(x[3],3) eq(x[4],3) eq(x[5],3) eq(x[6],3) eq(x[7],3) eq(x[8],3) eq(x[9],3) eq(x[10],3) eq(x[11],3) eq(x[12],3) eq(x[13],3) eq(x[14],3) eq(x[15],3) eq(x[16],3) eq(x[17],3) eq(x[18],3) eq(x[19],3) eq(x[20],3) eq(x[21],3) eq(x[22],3) eq(x[23],3) eq(x[24],3) eq(x[25],3) eq(x[26],3) eq(x[27],3) eq(x[28],3) eq(x[29],3) eq(x[30],3) eq(x[31],3) eq(x[32],3) eq(x[33],3) eq(x[34],3) eq(x[35],3) eq(x[36],3) eq(x[37],3) eq(x[38],3) eq(x[39],3) eq(x[40],3) eq(x[41],3) eq(x[42],3) eq(x[43],3) eq(x[44],3) eq(x[45],3) eq(x[46],3) eq(x[47],3) eq(x[48],3) eq(x[49],3) </args>
      <args> eq(x[0],4) eq(x[1],4) eq(x[2],4) eq(x[3],4) eq(x[4],4) eq(x[5],4) eq(x[6],4) eq(x[7],4) eq(x[8],4) eq(x[9],4) eq(x[10],4) eq(x[11],4) eq(x[12],4) eq(x[13],4) eq(x[14],4) eq(x[15],4) eq(x[16],4) eq(x[17],4) eq(x[18],4) eq(x[19],4) eq(x[20],4) eq(x[21],4) eq(x[22],4) eq(x[23],4) eq(x[24],4) eq(x[25],4) eq(x[26],4) eq(x[27],4) eq(x[28],4) eq(x[29],4) eq(x[30],4) eq(x[31],4) eq(x[32],4) eq(x[33],4) eq(x[34],4) eq(x[35],4) eq(x[36],4) eq(x[37],4) eq(x[38],4) eq(x[39],4) eq(x[40],4) eq(x[41],4) eq(x[42],4) eq(x[43],4) eq(x[44],4) eq(x[45],4) eq(x[46],4) eq(x[47],4) eq(x[48],4) eq(x[49],4) </args>
      <args> eq(x[0],5) eq(x[1],5) eq(x[2],5) eq(x[3],5) eq(x[4],5) eq(x[5],5) eq(x[6],5) eq(x[7],5) eq(x[8],5) eq(x[9],5) eq(x[10],5) eq(x[11],5) eq(x[12],5) eq(x[13],5) eq(x[14],5) eq(x[15],5) eq(x[16],5) eq(x[17],5) eq(x[18],5) eq(x[19],5) eq(x[20],5) eq(x[21],5) eq(x[22],5) eq(x[23],5) eq(x[24],5) eq(x[25],5) eq(x[26],5) eq(x[27],5) eq(x[28],5) eq(x[29],5) eq(x[30],5) eq(x[31],5) eq(x[32],5) eq(x[33],5) eq(x[34],5) eq(x[35],5) eq(x[36],5) eq(x[37],5) eq(x[38],5) eq(x[39],5) eq(x[40],5) eq(x[41],5) eq(x[42],5) eq(x[43],5) eq(x[44],5) eq(x[45],5) eq(x[46],5) eq(x[47],5) eq(x[48],5) eq(x[49],5) </args>
      <args> eq(x[0],6) eq(x[1],6) eq(x[2],6) eq(x[3],6) eq(x[4],6) eq(x[5],6) eq(x[6],6) eq(x[7],6) eq(x[8],6) eq(x[9],6) eq(x[10],6) eq(x[11],6) eq(x[12],6) eq(x[13],6) eq(x[14],6) eq(x[15],6) eq(x[16],6) eq(x[17],6) eq(x[18],6) eq(x[19],6) eq(x[20],6) eq(x[21],6) eq(x[22],6) eq(x[23],6) eq(x[24],6) eq(x[25],6) eq(x[26],6) eq(x[27],6) eq(x[28],6) eq(x[29],6) eq(x[30],6) eq(x[31],6) eq(x[32],6) eq(x[33],6) eq(x[34],6) eq(x[35],6) eq(x[36],6) eq(x[37],6) eq(x[38],6) eq(x[39],6) eq(x[40],6) eq(x[41],6) eq(x[42],6) eq(x[43],6) eq(x[44],6) eq(x[45],6) eq(x[46],6) eq(x[47],6) eq(x[48],6) eq(x[49],6) </args>
      <args> eq(x[0],7) eq(x[1],7) eq(x[2],7) eq(x[3],7) eq(x[4],7) eq(x[5],7) eq(x[6],7) eq(x[7],7) eq(x[8],7) eq(x[9],7) eq(x[10],7) eq(x[11],7) eq(x[12],7) eq(x[13],7) eq(x[14],7) eq(x[15],7) eq(x[16],7) eq(x[17],7) eq(x[18],7) eq(x[19],7) eq(x[20],7) eq(x[21],7) eq(x[22],7) eq(x[23],7) eq(x[24],7) eq(x[25],7) eq(x[26],7) eq(x[27],7) eq(x[28],7) eq(x[29],7) eq(x[30],7) eq(x[31],7) eq(x[32],7) eq(x[33],7) eq(x[34],7) eq(x[35],7) eq(x[36],7) eq(x[37],7) eq(x[38],7) eq(x[39],7) eq(x[40],7) eq(x[41],7) eq(x[42],7) eq(x[43],7) eq(x[44],7) eq(x[45],7) eq(x[46],7) eq(x[47],7) eq(x[48],7) eq(x[49],7) </args>
      <args> eq(x[0],8) eq(x[1],8) eq(x[2],8) eq(x[3],8) eq(x[4],8) eq(x[5],8) eq(x[6],8) eq(x[7],8) eq(x[8],8) eq(x[9],8) eq(x[10],8) eq(x[11],8) eq(x[12],8) eq(x[13],8) eq(x[14],8) eq(x[15],8) eq(x[16],8) eq(x[17],8) eq(x[18],8) eq(x[19],8) eq(x[20],8) eq(x[21],8) eq(x[22],8) eq(x[23],8) eq(x[24],8) eq(x[25],8) eq(x[26],8) eq(x[27],8) eq(x[28],8) eq(x[29],8) eq(x[30],8) eq(x[31],8) eq(x[32],8) eq(x[33],8) eq(x[34],8) eq(x[35],8) eq(x[36],8) eq(x[37],8) eq(x[38],8) eq(x[39],8) eq(x[40],8) eq(x[41],8) eq(x[42],8) eq(x[43],8) eq(x[44],8) eq(x[45],8) eq(x[46],8) eq(x[47],8) eq(x[48],8) eq(x[49],8) </args>
      <args> eq(x[0],9) eq(x[1],9) eq(x[2],9) eq(x[3],9) eq(x[4],9) eq(x[5],9) eq(x[6],9) eq(x[7],9) eq(x[8],9) eq(x[9],9) eq(x[10],9) eq(x[11],9) eq(x[12],9) eq(x[13],9) eq(x[14],9) eq(x[15],9) eq(x[16],9) eq(x[17],9) eq(x[18],9) eq(x[19],9) eq(x[20],9) eq(x[21],9) eq(x[22],9) eq(x[23],9) eq(x[24],9) eq(x[25],9) eq(x[26],9) eq(x[27],9) eq(x[28],9) eq(x[29],9) eq(x[30],9) eq(x[31],9) eq(x[32],9) eq(x[33],9) eq(x[34],9) eq(x[35],9) eq(x[36],9) eq(x[37],9) eq(x[38],9) eq(x[39],9) eq(x[40],9) eq(x[41],9) eq(x[42],9) eq(x[43],9) eq(x[44],9) eq(x[45],9) eq(x[46],9) eq(x[47],9) eq(x[48],9) eq(x[49],9) </args>
      <args> eq(x[0],10) eq(x[1],10) eq(x[2],10) eq(x[3],10) eq(x[4],10) eq(x[5],10) eq(x[6],10) eq(x[7],10) eq(x[8],10) eq(x[9],10) eq(x[10],10) eq(x[11],10) eq(x[12],10) eq(x[13],10) eq(x[14],10) eq(x[15],10) eq(x[16],10) eq(x[17],10) eq(x[18],10) eq(x[19],10) eq(x[20],10) eq(x[21],10) eq(x[22],10) eq(x[23],10) eq(x[24],10) eq(x[25],10) eq(x[26],10) eq(x[27],10) eq(x[28],10) eq(x[29],10) eq(x[30],10) eq(x[31],10) eq(x[32],10) eq(x[33],10) eq(x[34],10) eq(x[35],10) eq(x[36],10) eq(x[37],10) eq(x[38],10) eq(x[39],10) eq(x[40],10) eq(x[41],10) eq(x[42],10) eq(x[43],10) eq(x[44],10) eq(x[45],10) eq(x[46],10) eq(x[47],10) eq(x[48],10) eq(x[49],10) </args>
      <args> eq(x[0],11) eq(x[1],11) eq(x[2],11) eq(x[3],11) eq(x[4],11) eq(x[5],11) eq(x[6],11) eq(x[7],11) eq(x[8],11) eq(x[9],11) eq(x[10],11) eq(x[11],11) eq(x[12],11) eq(x[13],11) eq(x[14],11) eq(x[15],11) eq(x[16],11) eq(x[17],11) eq(x[18],11) eq(x[19],11) eq(x[20],11) eq(x[21],11) eq(x[22],11) eq(x[23],11) eq(x[24],11) eq(x[25],11) eq(x[26],11) eq(x[27],11) eq(x[28],11) eq(x[29],11) eq(x[30],11) eq(x[31],11) eq(x[32],11) eq(x[33],11) eq(x[34],11) eq(x[35],11) eq(x[36],11) eq(x[37],11) eq(x[38],11) eq(x[39],11) eq(x[40],11) eq(x[41],11) eq(x[42],11) eq(x[43],11) eq(x[44],11) eq(x[45],11) eq(x[46],11) eq(x[47],11) eq(x[48],11) eq(x[49],11) </args>
      <args> eq(x[0],12) eq(x[1],12) eq(x[2],12) eq(x[3],12) eq(x[4],12) eq(x[5],12) eq(x[6],12) eq(x[7],12) eq(x[8],12) eq(x[9],12) eq(x[10],12) eq(x[11],12) eq(x[12],12) eq(x[13],12) eq(x[14],12) eq(x[15],12) eq(x[16],12) eq(x[17],12) eq(x[18],12) eq(x[19],12) eq(x[20],12) eq(x[21],12) eq(x[22],12) eq(x[23],12) eq(x[24],12) eq(x[25],12) eq(x[26],12) eq(x[27],12) eq(x[28],12) eq(x[29],12) eq(x[30],12) eq(x[31],12) eq(x[32],12) eq(x[33],12) eq(x[34],12) eq(x[35],12) eq(x[36],12) eq(x[37],12) eq(x[38],12) eq(x[39],12) eq(x[40],12) eq(x[41],12) eq(x[42],12) eq(x[43],12) eq(x[44],12) eq(x[45],12) eq(x[46],12) eq(x[47],12) eq(x[48],12) eq(x[49],12) </args>
      <args> eq(x[0],13) eq(x[1],13) eq(x[2],13) eq(x[3],13) eq(x[4],13) eq(x[5],13) eq(x[6],13) eq(x[7],13) eq(x[8],13) eq(x[9],13) eq(x[10],13) eq(x[11],13) eq(x[12],13) eq(x[13],13) eq(x[14],13) eq(x[15],13) eq(x[16],13) eq(x[17],13) eq(x[18],13) eq(x[19],13) eq(x[20],13) eq(x[21],13) eq(x[22],13) eq(x[23],13) eq(x[24],13) eq(x[25],13) eq(x[26],13) eq(x[27],13) eq(x[28],13) eq(x[29],13) eq(x[30],13) eq(x[31],13) eq(x[32],13) eq(x[33],13) eq(x[34],13) eq(x[35],13) eq(x[36],13) eq(x[37],13) eq(x[38],13) eq(x[39],13) eq(x[40],13) eq(x[41],13) eq(x[42],13) eq(x[43],13) eq(x[44],13) eq(x[45],13) eq(x[46],13) eq(x[47],13) eq(x[48],13) eq(x[49],13) </args>
      <args> eq(x[0],14) eq(x[1],14) eq(x[2],14) eq(x[3],14) eq(x[4],14) eq(x[5],14) eq(x[6],14) eq(x[7],14) eq(x[8],14) eq(x[9],14) eq(x[10],14) eq(x[11],14) eq(x[12],14) eq(x[13],14) eq(x[14],14) eq(x[15],14) eq(x[16],14) eq(x[17],14) eq(x[18],14) eq(x[19],14) eq(x[20],14) eq(x[21],14) eq(x[22],14) eq(x[23],14) eq(x[24],14) eq(x[25],14) eq(x[26],14) eq(x[27],14) eq(x[28],14) eq(x[29],14) eq(x[30],14) eq(x[31],14) eq(x[32],14) eq(x[33],14) eq(x[34],14) eq(x[35],14) eq(x[36],14) eq(x[37],14) eq(x[38],14) eq(x[39],14) eq(x[40],14) eq(x[41],14) eq(x[42],14) eq(x[43],14) eq(x[44],14) eq(x[45],14) eq(x[46],14) eq(x[47],14) eq(x[48],14) eq(x[49],14) </args>
      <args> eq(x[0],15) eq(x[1],15) eq(x[2],15) eq(x[3],15) eq(x[4],15) eq(x[5],15) eq(x[6],15) eq(x[7],15) eq(x[8],15) eq(x[9],15) eq(x[10],15) eq(x[11],15) eq(x[12],15) eq(x[13],15) eq(x[14],15) eq(x[15],15) eq(x[16],15) eq(x[17],15) eq(x[18],15) eq(x[19],15) eq(x[20],15) eq(x[21],15) eq(x[22],15) eq(x[23],15) eq(x[24],15) eq(x[25],15) eq(x[26],15) eq(x[27],15) eq(x[28],15) eq(x[29],15) eq(x[30],15) eq(x[31],15) eq(x[32],15) eq(x[33],15) eq(x[34],15) eq(x[35],15) eq(x[36],15) eq(x[37],15) eq(x[38],15) eq(x[39],15) eq(x[40],15) eq(x[41],15) eq(x[42],15) eq(x[43],15) eq(x[44],15) eq(x[45],15) eq(x[46],15) eq(x[47],15) eq(x[48],15) eq(x[49],15) </args>
      <args> eq(x[0],16) eq(x[1],16) eq(x[2],16) eq(x[3],16) eq(x[4],16) eq(x[5],16) eq(x[6],16) eq(x[7],16) eq(x[8],16) eq(x[9],16) eq(x[10],16) eq(x[11],16) eq(x[12],16) eq(x[13],16) eq(x[14],16) eq(x[15],16) eq(x[16],16) eq(x[17],16) eq(x[18],16) eq(x[19],16) eq(x[20],16) eq(x[21],16) eq(x[22],16) eq(x[23],16) eq(x[24],16) eq(x[25],16) eq(x[26],16) eq(x[27],16) eq(x[28],16) eq(x[29],16) eq(x[30],16) eq(x[31],16) eq(x[32],16) eq(x[33],16) eq(x[34],16) eq(x[35],16) eq(x[36],16) eq(x[37],16) eq(x[38],16) eq(x[39],16) eq(x[40],16) eq(x[41],16) eq(x[42],16) eq(x[43],16) eq(x[44],16) eq(x[45],16) eq(x[46],16) eq(x[47],16) eq(x[48],16) eq(x[49],16) </args>
      <args> eq(x[0],17) eq(x[1],17) eq(x[2],17) eq(x[3],17) eq(x[4],17) eq(x[5],17) eq(x[6],17) eq(x[7],17) eq(x[8],17) eq(x[9],17) eq(x[10],17) eq(x[11],17) eq(x[12],17) eq(x[13],17) eq(x[14],17) eq(x[15],17) eq(x[16],17) eq(x[17],17) eq(x[18],17) eq(x[19],17) eq(x[20],17) eq(x[21],17) eq(x[22],17) eq(x[23],17) eq(x[24],17) eq(x[25],17) eq(x[26],17) eq(x[27],17) eq(x[28],17) eq(x[29],17) eq(x[30],17) eq(x[31],17) eq(x[32],17) eq(x[33],17) eq(x[34],17) eq(x[35],17) eq(x[36],17) eq(x[37],17) eq(x[38],17) eq(x[39],17) eq(x[40],17) eq(x[41],17) eq(x[42],17) eq(x[43],17) eq(x[44],17) eq(x[45],17) eq(x[46],17) eq(x[47],17) eq(x[48],17) eq(x[49],17) </args>
      <args> eq(x[0],18) eq(x[1],18) eq(x[2],18) eq(x[3],18) eq(x[4],18) eq(x[5],18) eq(x[6],18) eq(x[7],18) eq(x[8],18) eq(x[9],18) eq(x[10],18) eq(x[11],18) eq(x[12],18) eq(x[13],18) eq(x[14],18) eq(x[15],18) eq(x[16],18) eq(x[17],18) eq(x[18],18) eq(x[19],18) eq(x[20],18) eq(x[21],18) eq(x[22],18) eq(x[23],18) eq(x[24],18) eq(x[25],18) eq(x[26],18) eq(x[27],18) eq(x[28],18) eq(x[29],18) eq(x[30],18) eq(x[31],18) eq(x[32],18) eq(x[33],18) eq(x[34],18) eq(x[35],18) eq(x[36],18) eq(x[37],18) eq(x[38],18) eq(x[39],18) eq(x[40],18) eq(x[41],18) eq(x[42],18) eq(x[43],18) eq(x[44],18) eq(x[45],18) eq(x[46],18) eq(x[47],18) eq(x[48],18) eq(x[49],18) </args>
      <args> eq(x[0],19) eq(x[1],19) eq(x[2],19) eq(x[3],19) eq(x[4],19) eq(x[5],19) eq(x[6],19) eq(x[7],19) eq(x[8],19) eq(x[9],19) eq(x[10],19) eq(x[11],19) eq(x[12],19) eq(x[13],19) eq(x[14],19) eq(x[15],19) eq(x[16],19) eq(x[17],19) eq(x[18],19) eq(x[19],19) eq(x[20],19) eq(x[21],19) eq(x[22],19) eq(x[23],19) eq(x[24],19) eq(x[25],19) eq(x[26],19) eq(x[27],19) eq(x[28],19) eq(x[29],19) eq(x[30],19) eq(x[31],19) eq(x[32],19) eq(x[33],19) eq(x[34],19) eq(x[35],19) eq(x[36],19) eq(x[37],19) eq(x[38],19) eq(x[39],19) eq(x[40],19) eq(x[41],19) eq(x[42],19) eq(x[43],19) eq(x[44],19) eq(x[45],19) eq(x[46],19) eq(x[47],19) eq(x[48],19) eq(x[49],19) </args>
      <args> eq(x[0],20) eq(x[1],20) eq(x[2],20) eq(x[3],20) eq(x[4],20) eq(x[5],20) eq(x[6],20) eq(x[7],20) eq(x[8],20) eq(x[9],20) eq(x[10],20) eq(x[11],20) eq(x[12],20) eq(x[13],20) eq(x[14],20) eq(x[15],20) eq(x[16],20) eq(x[17],20) eq(x[18],20) eq(x[19],20) eq(x[20],20) eq(x[21],20) eq(x[22],20) eq(x[23],20) eq(x[24],20) eq(x[25],20) eq(x[26],20) eq(x[27],20) eq(x[28],20) eq(x[29],20) eq(x[30],20) eq(x[31],20) eq(x[32],20) eq(x[33],20) eq(x[34],20) eq(x[35],20) eq(x[36],20) eq(x[37],20) eq(x[38],20) eq(x[39],20) eq(x[40],20) eq(x[41],20) eq(x[42],20) eq(x[43],20) eq(x[44],20) eq(x[45],20) eq(x[46],20) eq(x[47],20) eq(x[48],20) eq(x[49],20) </args>
      <args> eq(x[0],21) eq(x[1],21) eq(x[2],21) eq(x[3],21) eq(x[4],21) eq(x[5],21) eq(x[6],21) eq(x[7],21) eq(x[8],21) eq(x[9],21) eq(x[10],21) eq(x[11],21) eq(x[12],21) eq(x[13],21) eq(x[14],21) eq(x[15],21) eq(x[16],21) eq(x[17],21) eq(x[18],21) eq(x[19],21) eq(x[20],21) eq(x[21],21) eq(x[22],21) eq(x[23],21) eq(x[24],21) eq(x[25],21) eq(x[26],21) eq(x[27],21) eq(x[28],21) eq(x[29],21) eq(x[30],21) eq(x[31],21) eq(x[32],21) eq(x[33],21) eq(x[34],21) eq(x[35],21) eq(x[36],21) eq(x[37],21) eq(x[38],21) eq(x[39],21) eq(x[40],21) eq(x[41],21) eq(x[42],21) eq(x[43],21) eq(x[44],21) eq(x[45],21) eq(x[46],21) eq(x[47],21) eq(x[48],21) eq(x[49],21) </args>
      <args> eq(x[0],22) eq(x[1],22) eq(x[2],22) eq(x[3],22) eq(x[4],22) eq(x[5],22) eq(x[6],22) eq(x[7],22) eq(x[8],22) eq(x[9],22) eq(x[10],22) eq(x[11],22) eq(x[12],22) eq(x[13],22) eq(x[14],22) eq(x[15],22) eq(x[16],22) eq(x[17],22) eq(x[18],22) eq(x[19],22) eq(x[20],22) eq(x[21],22) eq(x[22],22) eq(x[23],22) eq(x[24],22) eq(x[25],22) eq(x[26],22) eq(x[27],22) eq(x[28],22) eq(x[29],22) eq(x[30],22) eq(x[31],22) eq(x[32],22) eq(x[33],22) eq(x[34],22) eq(x[35],22) eq(x[36],22) eq(x[37],22) eq(x[38],22) eq(x[39],22) eq(x[40],22) eq(x[41],22) eq(x[42],22) eq(x[43],22) eq(x[44],22) eq(x[45],22) eq(x[46],22) eq(x[47],22) eq(x[48],22) eq(x[49],22) </args>
      <args> eq(x[0],23) eq(x[1],23) eq(x[2],23) eq(x[3],23) eq(x[4],23) eq(x[5],23) eq(x[6],23) eq(x[7],23) eq(x[8],23) eq(x[9],23) eq(x[10],23) eq(x[11],23) eq(x[12],23) eq(x[13],23) eq(x[14],23) eq(x[15],23) eq(x[16],23) eq(x[17],23) eq(x[18],23) eq(x[19],23) eq(x[20],23) eq(x[21],23) eq(x[22],23) eq(x[23],23) eq(x[24],23) eq(x[25],23) eq(x[26],23) eq(x[27],23) eq(x[28],23) eq(x[29],23) eq(x[30],23) eq(x[31],23) eq(x[32],23) eq(x[33],23) eq(x[34],23) eq(x[35],23) eq(x[36],23) eq(x[37],23) eq(x[38],23) eq(x[39],23) eq(x[40],23) eq(x[41],23) eq(x[42],23) eq(x[43],23) eq(x[44],23) eq(x[45],23) eq(x[46],23) eq(x[47],23) eq(x[48],23) eq(x[49],23) </args>
      <args> eq(x[0],24) eq(x[1],24) eq(x[2],24) eq(x[3],24) eq(x[4],24) eq(x[5],24) eq(x[6],24) eq(x[7],24) eq(x[8],24) eq(x[9],24) eq(x[10],24) eq(x[11],24) eq(x[12],24) eq(x[13],24) eq(x[14],24) eq(x[15],24) eq(x[16],24) eq(x[17],24) eq(x[18],24) eq(x[19],24) eq(x[20],24) eq(x[21],24) eq(x[22],24) eq(x[23],24) eq(x[24],24) eq(x[25],24) eq(x[26],24) eq(x[27],24) eq(x[28],24) eq(x[29],24) eq(x[30],24) eq(x[31],24) eq(x[32],24) eq(x[33],24) eq(x[34],24) eq(x[35],24) eq(x[36],24) eq(x[37],24) eq(x[38],24) eq(x[39],24) eq(x[40],24) eq(x[41],24) eq(x[42],24) eq(x[43],24) eq(x[44],24) eq(x[45],24) eq(x[46],24) eq(x[47],24) eq(x[48],24) eq(x[49],24) </args>
      <args> eq(x[0],25) eq(x[1],25) eq(x[2],25) eq(x[3],25) eq(x[4],25) eq(x[5],25) eq(x[6],25) eq(x[7],25) eq(x[8],25) eq(x[9],25) eq(x[10],25) eq(x[11],25) eq(x[12],25) eq(x[13],25) eq(x[14],25) eq(x[15],25) eq(x[16],25) eq(x[17],25) eq(x[18],25) eq(x[19],25) eq(x[20],25) eq(x[21],25) eq(x[22],25) eq(x[23],25) eq(x[24],25) eq(x[25],25) eq(x[26],25) eq(x[27],25) eq(x[28],25) eq(x[29],25) eq(x[30],25) eq(x[31],25) eq(x[32],25) eq(x[33],25) eq(x[34],25) eq(x[35],25) eq(x[36],25) eq(x[37],25) eq(x[38],25) eq(x[39],25) eq(x[40],25) eq(x[41],25) eq(x[42],25) eq(x[43],25) eq(x[44],25) eq(x[45],25) eq(x[46],25) eq(x[47],25) eq(x[48],25) eq(x[49],25) </args>
      <args> eq(x[0],26) eq(x[1],26) eq(x[2],26) eq(x[3],26) eq(x[4],26) eq(x[5],26) eq(x[6],26) eq(x[7],26) eq(x[8],26) eq(x[9],26) eq(x[10],26) eq(x[11],26) eq(x[12],26) eq(x[13],26) eq(x[14],26) eq(x[15],26) eq(x[16],26) eq(x[17],26) eq(x[18],26) eq(x[19],26) eq(x[20],26) eq(x[21],26) eq(x[22],26) eq(x[23],26) eq(x[24],26) eq(x[25],26) eq(x[26],26) eq(x[27],26) eq(x[28],26) eq(x[29],26) eq(x[30],26) eq(x[31],26) eq(x[32],26) eq(x[33],26) eq(x[34],26) eq(x[35],26) eq(x[36],26) eq(x[37],26) eq(x[38],26) eq(x[39],26) eq(x[40],26) eq(x[41],26) eq(x[42],26) eq(x[43],26) eq(x[44],26) eq(x[45],26) eq(x[46],26) eq(x[47],26) eq(x[48],26) eq(x[49],26) </args>
      <args> eq(x[0],27) eq(x[1],27) eq(x[2],27) eq(x[3],27) eq(x[4],27) eq(x[5],27) eq(x[6],27) eq(x[7],27) eq(x[8],27) eq(x[9],27) eq(x[10],27) eq(x[11],27) eq(x[12],27) eq(x[13],27) eq(x[14],27) eq(x[15],27) eq(x[16],27) eq(x[17],27) eq(x[18],27) eq(x[19],27) eq(x[20],27) eq(x[21],27) eq(x[22],27) eq(x[23],27) eq(x[24],27) eq(x[25],27) eq(x[26],27) eq(x[27],27) eq(x[28],27) eq(x[29],27) eq(x[30],27) eq(x[31],27) eq(x[32],27) eq(x[33],27) eq(x[34],27) eq(x[35],27) eq(x[36],27) eq(x[37],27) eq(x[38],27) eq(x[39],27) eq(x[40],27) eq(x[41],27) eq(x[42],27) eq(x[43],27) eq(x[44],27) eq(x[45],27) eq(x[46],27) eq(x[47],27) eq(x[48],27) eq(x[49],27) </args>
      <args> eq(x[0],28) eq(x[1],28) eq(x[2],28) eq(x[3],28) eq(x[4],28) eq(x[5],28) eq(x[6],28) eq(x[7],28) eq(x[8],28) eq(x[9],28) eq(x[10],28) eq(x[11],28) eq(x[12],28) eq(x[13],28) eq(x[14],28) eq(x[15],28) eq(x[16],28) eq(x[17],28) eq(x[18],28) eq(x[19],28) eq(x[20],28) eq(x[21],28) eq(x[22],28) eq(x[23],28) eq(x[24],28) eq(x[25],28) eq(x[26],28) eq(x[27],28) eq(x[28],28) eq(x[29],28) eq(x[30],28) eq(x[31],28) eq(x[32],28) eq(x[33],28) eq(x[34],28) eq(x[35],28) eq(x[36],28) eq(x[37],28) eq(x[38],28) eq(x[39],28) eq(x[40],28) eq(x[41],28) eq(x[42],28) eq(x[43],28) eq(x[44],28) eq(x[45],28) eq(x[46],28) eq(x[47],28) eq(x[48],28) eq(x[49],28) </args>
      <args> eq(x[0],29) eq(x[1],29) eq(x[2],29) eq(x[3],29) eq(x[4],29) eq(x[5],29) eq(x[6],29) eq(x[7],29) eq(x[8],29) eq(x[9],29) eq(x[10],29) eq(x[11],29) eq(x[12],29) eq(x[13],29) eq(x[14],29) eq(x[15],29) eq(x[16],29) eq(x[17],29) eq(x[18],29) eq(x[19],29) eq(x[20],29) eq(x[21],29) eq(x[22],29) eq(x[23],29) eq(x[24],29) eq(x[25],29) eq(x[26],29) eq(x[27],29) eq(x[28],29) eq(x[29],29) eq(x[30],29) eq(x[31],29) eq(x[32],29) eq(x[33],29) eq(x[34],29) eq(x[35],29) eq(x[36],29) eq(x[37],29) eq(x[38],29) eq(x[39],29) eq(x[40],29) eq(x[41],29) eq(x[42],29) eq(x[43],29) eq(x[44],29) eq(x[45],29) eq(x[46],29) eq(x[47],29) eq(x[48],29) eq(x[49],29) </args>
    </group>
    <block class="symmetry-breaking">
      <precedence> x[] </precedence>
      <group>
        <intension> lt(%0,%1) </intension>
        <args> x[2] x[3] </args>
        <args> x[3] x[4] </args>
        <args> x[5] x[6] </args>
        <args> x[24] x[25] </args>
        <args> x[29] x[30] </args>
        <args> x[31] x[32] </args>
        <args> x[35] x[36] </args>
        <args> x[38] x[39] </args>
        <args> x[39] x[40] </args>
        <args> x[42] x[43] </args>
        <args> x[46] x[47] </args>
      </group>
      <instantiation>
        <list> x[0..20] </list>
        <values> 0 1 2 3 4 5 6 7 8 9 10 11 12 13 14 15 16 17 18 19 20 </values>
      </instantiation>
    </block>
  </constraints>
  <objectives>
    <minimize type="maximum"> x[] </minimize>
  </objectives>
</instance>
